Route #1: 1 53 28 46 30 16 58 28 14 55 28 1 
Route #2: 1 12 39 11 66 12 15 20 28 1 
Route #3: 1 59 12 67 12 60 12 54 36 8 1 
Route #4: 1 68 9 47 35 1 
Route #5: 1 31 49 38 37 70 38 61 21 38 1 
Route #6: 1 2 23 62 23 65 23 63 3 69 1 
Route #7: 1 5 6 38 48 22 29 23 44 42 43 23 1 
Route #8: 1 7 34 64 50 57 24 50 4 45 18 1 
Route #9: 1 27 10 26 51 19 25 50 17 52 1 
Route #10: 1 13 40 26 32 26 56 26 33 41 1 
Cost 1051.0
